50
120
98
98
98
97
97
93
92
91
90
89
89
82
82
77
76
75
74
74
73
63
62
62
61
60
56
51
49
49
47
47
45
44
43
42
39
37
33
33
32
28
25
21
20
19
11
11
6
3
2
1
